
  32    4
  10   10   10   10

   0   0   0   0   0  18 2 3 4 5 6 7 8 9 10 13 14 15 26 27 28 29 30 31 
   2   1   0   1   1   6 25 23 22 17 16 11 
  10   4   0   4   3   6 24 23 19 18 17 16 
   7   0   1   1   5   3 18 17 11 
   6   6   4   3   0   3 23 18 16 
   4   0   7   5   1   2 20 12 
   2   3   0   6   8   2 22 21 
   2   0   3   3   1   2 21 20 
   2   0   4   5   4   2 22 18 
   2   5   4   0   2   2 21 17 
   6   0   5   4   4   1 19 
   9   5   0   5   4   1 16 
   6   3   5   0   2   1 20 
   9   4   2   0   5   1 16 
   8   1   4   5   0   1 16 
   6   0   3   3   4   1 32
   7   4   4   0   4   1 32
   5   3   3   0   4   1 32
   7   3   0   2   6   1 32
  10   4   6   2   0   1 32
   1   6   8   9   0   1 32
   9   6   0   4   5   1 32
   6   6   6   4   0   1 32
   6   6   2   0   6   1 32
   9   0   5   5   3   1 32
   5   0   3   3   5   1 32
   6   2   2   5   0   1 32
   4   2   3   0   5   1 32
   8   4   3   0   4   1 32
  10   0   2   5   6   1 32
   7   6   7   0   4   1 32
   0   0   0   0   0   0 
